
--- Job MainOPF.gms Start 10/22/15 15:44:57 24.5.3 r54322 WEX-WEI x86 64bit/MS Windows
GAMS 24.5.3   Copyright (C) 1987-2015 GAMS Development. All rights reserved
Licensee: Course License, Introduction to Decision Suppo G150929:0359AO-GEN
          TU Delft, Faculteit Elektrotechniek, Wiskunde en InformatiDC12029
          License for teaching and research at degree granting institutions
--- Starting compilation
--- MainOPF.gms(28) 2 Mb
--- .Indices_OPF.inc(18) 3 Mb
--- MainOPF.gms(32) 3 Mb
--- .Resistive_Network_OPF.inc(43) 3 Mb
--- MainOPF.gms(36) 3 Mb
--- .CCsources_OPF.inc(43) 3 Mb
--- MainOPF.gms(40) 3 Mb
--- .CCloads_OPF.inc(43) 3 Mb
--- MainOPF.gms(44) 3 Mb
--- .CPload_OPF.inc(43) 3 Mb
--- MainOPF.gms(48) 3 Mb
--- .CVref_OPF.inc(43) 3 Mb
--- MainOPF.gms(52) 3 Mb
--- .DCVref_OPF.inc(43) 3 Mb
--- MainOPF.gms(56) 3 Mb
--- .G_Droop_OPF.inc(43) 3 Mb
--- MainOPF.gms(191) 3 Mb
--- Starting execution: elapsed 0:00:00.011
--- MainOPF.gms(473) 4 Mb
--- Generating LP model PowerFlow
--- MainOPF.gms(497) 4 Mb
---   25 rows  25 columns  59 non-zeroes
--- Executing CPLEX: elapsed 0:00:00.066

IBM ILOG CPLEX   24.5.3 r54322 Released Oct  1, 2015 WEI x86 64bit/MS Windows 
Cplex 12.6.2.0

Reading data...
Starting Cplex...
Space for names approximately 0.00 Mb
Use option 'names no' to turn use of names off
Tried aggregator 1 time.
LP Presolve eliminated 9 rows and 9 columns.
Aggregator did 16 substitutions.
All rows and columns eliminated.
Presolve time = 0.00 sec. (0.02 ticks)
LP status(1): optimal
Cplex Time: 0.00sec (det. 0.02 ticks)

Optimal solution found.
Objective :           7.000000

--- Restarting execution
--- MainOPF.gms(497) 2 Mb
--- Reading solution for model PowerFlow
--- Executing after solve: elapsed 0:00:00.176
--- MainOPF.gms(500) 3 Mb
*** Status: Normal completion
--- Job MainOPF.gms Stop 10/22/15 15:44:58 elapsed 0:00:00.187
